(set-logic HORN)


(declare-fun |h25| ( (_ BitVec 32) (_ BitVec 32) (_ BitVec 32) (_ BitVec 32) (_ BitVec 32) (_ BitVec 32) (_ BitVec 32) (_ BitVec 32) (_ BitVec 32) (_ BitVec 32) (_ BitVec 32) (_ BitVec 32) (_ BitVec 32) (_ BitVec 32) (_ BitVec 32) (_ BitVec 32) (_ BitVec 32) (_ BitVec 32) ) Bool)
(declare-fun |h32| ( (_ BitVec 32) (_ BitVec 32) (_ BitVec 32) (_ BitVec 32) (_ BitVec 32) (_ BitVec 32) (_ BitVec 32) (_ BitVec 32) (_ BitVec 32) (_ BitVec 32) (_ BitVec 32) (_ BitVec 32) (_ BitVec 32) (_ BitVec 32) (_ BitVec 32) (_ BitVec 32) (_ BitVec 32) (_ BitVec 32) ) Bool)
(declare-fun |h5| ( (_ BitVec 32) (_ BitVec 32) (_ BitVec 32) (_ BitVec 32) (_ BitVec 32) (_ BitVec 32) (_ BitVec 32) (_ BitVec 32) (_ BitVec 32) (_ BitVec 32) (_ BitVec 32) (_ BitVec 32) (_ BitVec 32) (_ BitVec 32) (_ BitVec 32) (_ BitVec 32) (_ BitVec 32) (_ BitVec 32) ) Bool)
(declare-fun |h6| ( (_ BitVec 32) (_ BitVec 32) (_ BitVec 32) (_ BitVec 32) (_ BitVec 32) (_ BitVec 32) (_ BitVec 32) (_ BitVec 32) (_ BitVec 32) (_ BitVec 32) (_ BitVec 32) (_ BitVec 32) (_ BitVec 32) (_ BitVec 32) (_ BitVec 32) (_ BitVec 32) (_ BitVec 32) (_ BitVec 32) ) Bool)
(declare-fun |h28| ( (_ BitVec 32) (_ BitVec 32) (_ BitVec 32) (_ BitVec 32) (_ BitVec 32) (_ BitVec 32) (_ BitVec 32) (_ BitVec 32) (_ BitVec 32) (_ BitVec 32) (_ BitVec 32) (_ BitVec 32) (_ BitVec 32) (_ BitVec 32) (_ BitVec 32) (_ BitVec 32) (_ BitVec 32) (_ BitVec 32) ) Bool)
(declare-fun |h12| ( (_ BitVec 32) (_ BitVec 32) (_ BitVec 32) (_ BitVec 32) (_ BitVec 32) (_ BitVec 32) (_ BitVec 32) (_ BitVec 32) (_ BitVec 32) (_ BitVec 32) (_ BitVec 32) (_ BitVec 32) (_ BitVec 32) (_ BitVec 32) (_ BitVec 32) (_ BitVec 32) (_ BitVec 32) (_ BitVec 32) ) Bool)
(declare-fun |h29| ( (_ BitVec 32) (_ BitVec 32) (_ BitVec 32) (_ BitVec 32) (_ BitVec 32) (_ BitVec 32) (_ BitVec 32) (_ BitVec 32) (_ BitVec 32) (_ BitVec 32) (_ BitVec 32) (_ BitVec 32) (_ BitVec 32) (_ BitVec 32) (_ BitVec 32) (_ BitVec 32) (_ BitVec 32) (_ BitVec 32) ) Bool)
(declare-fun |h14| ( (_ BitVec 32) (_ BitVec 32) (_ BitVec 32) (_ BitVec 32) (_ BitVec 32) (_ BitVec 32) (_ BitVec 32) (_ BitVec 32) (_ BitVec 32) (_ BitVec 32) (_ BitVec 32) (_ BitVec 32) (_ BitVec 32) (_ BitVec 32) (_ BitVec 32) (_ BitVec 32) (_ BitVec 32) (_ BitVec 32) ) Bool)
(declare-fun |h1| ( (_ BitVec 32) (_ BitVec 32) (_ BitVec 32) (_ BitVec 32) (_ BitVec 32) (_ BitVec 32) (_ BitVec 32) (_ BitVec 32) (_ BitVec 32) (_ BitVec 32) (_ BitVec 32) (_ BitVec 32) (_ BitVec 32) (_ BitVec 32) (_ BitVec 32) (_ BitVec 32) (_ BitVec 32) (_ BitVec 32) ) Bool)
(declare-fun |h22| ( (_ BitVec 32) (_ BitVec 32) (_ BitVec 32) (_ BitVec 32) (_ BitVec 32) (_ BitVec 32) (_ BitVec 32) (_ BitVec 32) (_ BitVec 32) (_ BitVec 32) (_ BitVec 32) (_ BitVec 32) (_ BitVec 32) (_ BitVec 32) (_ BitVec 32) (_ BitVec 32) (_ BitVec 32) (_ BitVec 32) ) Bool)
(declare-fun |h7| ( (_ BitVec 32) (_ BitVec 32) (_ BitVec 32) (_ BitVec 32) (_ BitVec 32) (_ BitVec 32) (_ BitVec 32) (_ BitVec 32) (_ BitVec 32) (_ BitVec 32) (_ BitVec 32) (_ BitVec 32) (_ BitVec 32) (_ BitVec 32) (_ BitVec 32) (_ BitVec 32) (_ BitVec 32) (_ BitVec 32) ) Bool)
(declare-fun |h19| ( (_ BitVec 32) (_ BitVec 32) (_ BitVec 32) (_ BitVec 32) (_ BitVec 32) (_ BitVec 32) (_ BitVec 32) (_ BitVec 32) (_ BitVec 32) (_ BitVec 32) (_ BitVec 32) (_ BitVec 32) (_ BitVec 32) (_ BitVec 32) (_ BitVec 32) (_ BitVec 32) (_ BitVec 32) (_ BitVec 32) ) Bool)
(declare-fun |h26| ( (_ BitVec 32) (_ BitVec 32) (_ BitVec 32) (_ BitVec 32) (_ BitVec 32) (_ BitVec 32) (_ BitVec 32) (_ BitVec 32) (_ BitVec 32) (_ BitVec 32) (_ BitVec 32) (_ BitVec 32) (_ BitVec 32) (_ BitVec 32) (_ BitVec 32) (_ BitVec 32) (_ BitVec 32) (_ BitVec 32) ) Bool)
(declare-fun |h15| ( (_ BitVec 32) (_ BitVec 32) (_ BitVec 32) (_ BitVec 32) (_ BitVec 32) (_ BitVec 32) (_ BitVec 32) (_ BitVec 32) (_ BitVec 32) (_ BitVec 32) (_ BitVec 32) (_ BitVec 32) (_ BitVec 32) (_ BitVec 32) (_ BitVec 32) (_ BitVec 32) (_ BitVec 32) (_ BitVec 32) ) Bool)
(declare-fun |h4| ( (_ BitVec 32) (_ BitVec 32) (_ BitVec 32) (_ BitVec 32) (_ BitVec 32) (_ BitVec 32) (_ BitVec 32) (_ BitVec 32) (_ BitVec 32) (_ BitVec 32) (_ BitVec 32) (_ BitVec 32) (_ BitVec 32) (_ BitVec 32) (_ BitVec 32) (_ BitVec 32) (_ BitVec 32) (_ BitVec 32) ) Bool)
(declare-fun |h9| ( (_ BitVec 32) (_ BitVec 32) (_ BitVec 32) (_ BitVec 32) (_ BitVec 32) (_ BitVec 32) (_ BitVec 32) (_ BitVec 32) (_ BitVec 32) (_ BitVec 32) (_ BitVec 32) (_ BitVec 32) (_ BitVec 32) (_ BitVec 32) (_ BitVec 32) (_ BitVec 32) (_ BitVec 32) (_ BitVec 32) ) Bool)
(declare-fun |h23| ( (_ BitVec 32) (_ BitVec 32) (_ BitVec 32) (_ BitVec 32) (_ BitVec 32) (_ BitVec 32) (_ BitVec 32) (_ BitVec 32) (_ BitVec 32) (_ BitVec 32) (_ BitVec 32) (_ BitVec 32) (_ BitVec 32) (_ BitVec 32) (_ BitVec 32) (_ BitVec 32) (_ BitVec 32) (_ BitVec 32) ) Bool)
(declare-fun |h20| ( (_ BitVec 32) (_ BitVec 32) (_ BitVec 32) (_ BitVec 32) (_ BitVec 32) (_ BitVec 32) (_ BitVec 32) (_ BitVec 32) (_ BitVec 32) (_ BitVec 32) (_ BitVec 32) (_ BitVec 32) (_ BitVec 32) (_ BitVec 32) (_ BitVec 32) (_ BitVec 32) (_ BitVec 32) (_ BitVec 32) ) Bool)
(declare-fun |h30| ( (_ BitVec 32) (_ BitVec 32) (_ BitVec 32) (_ BitVec 32) (_ BitVec 32) (_ BitVec 32) (_ BitVec 32) (_ BitVec 32) (_ BitVec 32) (_ BitVec 32) (_ BitVec 32) (_ BitVec 32) (_ BitVec 32) (_ BitVec 32) (_ BitVec 32) (_ BitVec 32) (_ BitVec 32) (_ BitVec 32) ) Bool)
(declare-fun |h24| ( (_ BitVec 32) (_ BitVec 32) (_ BitVec 32) (_ BitVec 32) (_ BitVec 32) (_ BitVec 32) (_ BitVec 32) (_ BitVec 32) (_ BitVec 32) (_ BitVec 32) (_ BitVec 32) (_ BitVec 32) (_ BitVec 32) (_ BitVec 32) (_ BitVec 32) (_ BitVec 32) (_ BitVec 32) (_ BitVec 32) ) Bool)
(declare-fun |h27| ( (_ BitVec 32) (_ BitVec 32) (_ BitVec 32) (_ BitVec 32) (_ BitVec 32) (_ BitVec 32) (_ BitVec 32) (_ BitVec 32) (_ BitVec 32) (_ BitVec 32) (_ BitVec 32) (_ BitVec 32) (_ BitVec 32) (_ BitVec 32) (_ BitVec 32) (_ BitVec 32) (_ BitVec 32) (_ BitVec 32) ) Bool)
(declare-fun |h13| ( (_ BitVec 32) (_ BitVec 32) (_ BitVec 32) (_ BitVec 32) (_ BitVec 32) (_ BitVec 32) (_ BitVec 32) (_ BitVec 32) (_ BitVec 32) (_ BitVec 32) (_ BitVec 32) (_ BitVec 32) (_ BitVec 32) (_ BitVec 32) (_ BitVec 32) (_ BitVec 32) (_ BitVec 32) (_ BitVec 32) ) Bool)
(declare-fun |h11| ( (_ BitVec 32) (_ BitVec 32) (_ BitVec 32) (_ BitVec 32) (_ BitVec 32) (_ BitVec 32) (_ BitVec 32) (_ BitVec 32) (_ BitVec 32) (_ BitVec 32) (_ BitVec 32) (_ BitVec 32) (_ BitVec 32) (_ BitVec 32) (_ BitVec 32) (_ BitVec 32) (_ BitVec 32) (_ BitVec 32) ) Bool)
(declare-fun |h31| ( (_ BitVec 32) (_ BitVec 32) (_ BitVec 32) (_ BitVec 32) (_ BitVec 32) (_ BitVec 32) (_ BitVec 32) (_ BitVec 32) (_ BitVec 32) (_ BitVec 32) (_ BitVec 32) (_ BitVec 32) (_ BitVec 32) (_ BitVec 32) (_ BitVec 32) (_ BitVec 32) (_ BitVec 32) (_ BitVec 32) ) Bool)
(declare-fun |h21| ( (_ BitVec 32) (_ BitVec 32) (_ BitVec 32) (_ BitVec 32) (_ BitVec 32) (_ BitVec 32) (_ BitVec 32) (_ BitVec 32) (_ BitVec 32) (_ BitVec 32) (_ BitVec 32) (_ BitVec 32) (_ BitVec 32) (_ BitVec 32) (_ BitVec 32) (_ BitVec 32) (_ BitVec 32) (_ BitVec 32) ) Bool)
(declare-fun |h2| ( (_ BitVec 32) (_ BitVec 32) (_ BitVec 32) (_ BitVec 32) (_ BitVec 32) (_ BitVec 32) (_ BitVec 32) (_ BitVec 32) (_ BitVec 32) (_ BitVec 32) (_ BitVec 32) (_ BitVec 32) (_ BitVec 32) (_ BitVec 32) (_ BitVec 32) (_ BitVec 32) (_ BitVec 32) (_ BitVec 32) ) Bool)
(declare-fun |h8| ( (_ BitVec 32) (_ BitVec 32) (_ BitVec 32) (_ BitVec 32) (_ BitVec 32) (_ BitVec 32) (_ BitVec 32) (_ BitVec 32) (_ BitVec 32) (_ BitVec 32) (_ BitVec 32) (_ BitVec 32) (_ BitVec 32) (_ BitVec 32) (_ BitVec 32) (_ BitVec 32) (_ BitVec 32) (_ BitVec 32) ) Bool)
(declare-fun |h18| ( (_ BitVec 32) (_ BitVec 32) (_ BitVec 32) (_ BitVec 32) (_ BitVec 32) (_ BitVec 32) (_ BitVec 32) (_ BitVec 32) (_ BitVec 32) (_ BitVec 32) (_ BitVec 32) (_ BitVec 32) (_ BitVec 32) (_ BitVec 32) (_ BitVec 32) (_ BitVec 32) (_ BitVec 32) (_ BitVec 32) ) Bool)
(declare-fun |h17| ( (_ BitVec 32) (_ BitVec 32) (_ BitVec 32) (_ BitVec 32) (_ BitVec 32) (_ BitVec 32) (_ BitVec 32) (_ BitVec 32) (_ BitVec 32) (_ BitVec 32) (_ BitVec 32) (_ BitVec 32) (_ BitVec 32) (_ BitVec 32) (_ BitVec 32) (_ BitVec 32) (_ BitVec 32) (_ BitVec 32) ) Bool)
(declare-fun |h16| ( (_ BitVec 32) (_ BitVec 32) (_ BitVec 32) (_ BitVec 32) (_ BitVec 32) (_ BitVec 32) (_ BitVec 32) (_ BitVec 32) (_ BitVec 32) (_ BitVec 32) (_ BitVec 32) (_ BitVec 32) (_ BitVec 32) (_ BitVec 32) (_ BitVec 32) (_ BitVec 32) (_ BitVec 32) (_ BitVec 32) ) Bool)
(declare-fun |h3| ( (_ BitVec 32) (_ BitVec 32) (_ BitVec 32) (_ BitVec 32) (_ BitVec 32) (_ BitVec 32) (_ BitVec 32) (_ BitVec 32) (_ BitVec 32) (_ BitVec 32) (_ BitVec 32) (_ BitVec 32) (_ BitVec 32) (_ BitVec 32) (_ BitVec 32) (_ BitVec 32) (_ BitVec 32) (_ BitVec 32) ) Bool)
(declare-fun |h10| ( (_ BitVec 32) (_ BitVec 32) (_ BitVec 32) (_ BitVec 32) (_ BitVec 32) (_ BitVec 32) (_ BitVec 32) (_ BitVec 32) (_ BitVec 32) (_ BitVec 32) (_ BitVec 32) (_ BitVec 32) (_ BitVec 32) (_ BitVec 32) (_ BitVec 32) (_ BitVec 32) (_ BitVec 32) (_ BitVec 32) ) Bool)

(assert
  (forall ( (A (_ BitVec 32)) (B (_ BitVec 32)) (C (_ BitVec 32)) (D (_ BitVec 32)) (E (_ BitVec 32)) (F (_ BitVec 32)) (G (_ BitVec 32)) (H (_ BitVec 32)) (I (_ BitVec 32)) (v_9 (_ BitVec 32)) (v_10 (_ BitVec 32)) (v_11 (_ BitVec 32)) (v_12 (_ BitVec 32)) (v_13 (_ BitVec 32)) (v_14 (_ BitVec 32)) (v_15 (_ BitVec 32)) (v_16 (_ BitVec 32)) (v_17 (_ BitVec 32)) ) 
    (=>
      (and
        (and true
     (= v_9 A)
     (= v_10 B)
     (= v_11 C)
     (= v_12 D)
     (= v_13 E)
     (= v_14 F)
     (= v_15 G)
     (= v_16 H)
     (= v_17 I))
      )
      (h1 A B C D E F G H I v_9 v_10 v_11 v_12 v_13 v_14 v_15 v_16 v_17)
    )
  )
)
(assert
  (forall ( (A (_ BitVec 32)) (B (_ BitVec 32)) (C (_ BitVec 32)) (D (_ BitVec 32)) (E (_ BitVec 32)) (F (_ BitVec 32)) (G (_ BitVec 32)) (H (_ BitVec 32)) (I (_ BitVec 32)) (J (_ BitVec 32)) (K (_ BitVec 32)) (L (_ BitVec 32)) (M (_ BitVec 32)) (N (_ BitVec 32)) (O (_ BitVec 32)) (P (_ BitVec 32)) (Q (_ BitVec 32)) (R (_ BitVec 32)) (S (_ BitVec 32)) (T (_ BitVec 32)) ) 
    (=>
      (and
        (h1 A B C D E F G H I J K S T N O P Q R)
        (and (= L #x00000fa0) (= M #x000007d0))
      )
      (h2 A B C D E F G H I J K L M N O P Q R)
    )
  )
)
(assert
  (forall ( (A (_ BitVec 32)) (B (_ BitVec 32)) (C (_ BitVec 32)) (D (_ BitVec 32)) (E (_ BitVec 32)) (F (_ BitVec 32)) (G (_ BitVec 32)) (H (_ BitVec 32)) (I (_ BitVec 32)) (J (_ BitVec 32)) (K (_ BitVec 32)) (L (_ BitVec 32)) (M (_ BitVec 32)) (N (_ BitVec 32)) (O (_ BitVec 32)) (P (_ BitVec 32)) (Q (_ BitVec 32)) (R (_ BitVec 32)) ) 
    (=>
      (and
        (h2 A B C D E F G H I J K L M N O P Q R)
        true
      )
      (h3 A B C D E F G H I J K L M N O P Q R)
    )
  )
)
(assert
  (forall ( (A (_ BitVec 32)) (B (_ BitVec 32)) (C (_ BitVec 32)) (D (_ BitVec 32)) (E (_ BitVec 32)) (F (_ BitVec 32)) (G (_ BitVec 32)) (H (_ BitVec 32)) (I (_ BitVec 32)) (J (_ BitVec 32)) (K (_ BitVec 32)) (L (_ BitVec 32)) (M (_ BitVec 32)) (N (_ BitVec 32)) (O (_ BitVec 32)) (P (_ BitVec 32)) (Q (_ BitVec 32)) (R (_ BitVec 32)) ) 
    (=>
      (and
        (h3 A B C D E F G H I J K L M N O P Q R)
        true
      )
      (h4 A B C D E F G H I J K L M N O P Q R)
    )
  )
)
(assert
  (forall ( (A (_ BitVec 32)) (B (_ BitVec 32)) (C (_ BitVec 32)) (D (_ BitVec 32)) (E (_ BitVec 32)) (F (_ BitVec 32)) (G (_ BitVec 32)) (H (_ BitVec 32)) (I (_ BitVec 32)) (J (_ BitVec 32)) (K (_ BitVec 32)) (L (_ BitVec 32)) (M (_ BitVec 32)) (N (_ BitVec 32)) (O (_ BitVec 32)) (P (_ BitVec 32)) (Q (_ BitVec 32)) (R (_ BitVec 32)) ) 
    (=>
      (and
        (h4 A B C D E F G H I J K L M N O P Q R)
        true
      )
      (h5 A B C D E F G H I J K L M N O P Q R)
    )
  )
)
(assert
  (forall ( (A (_ BitVec 32)) (B (_ BitVec 32)) (C (_ BitVec 32)) (D (_ BitVec 32)) (E (_ BitVec 32)) (F (_ BitVec 32)) (G (_ BitVec 32)) (H (_ BitVec 32)) (I (_ BitVec 32)) (J (_ BitVec 32)) (K (_ BitVec 32)) (L (_ BitVec 32)) (M (_ BitVec 32)) (N (_ BitVec 32)) (O (_ BitVec 32)) (P (_ BitVec 32)) (Q (_ BitVec 32)) (R (_ BitVec 32)) ) 
    (=>
      (and
        (h5 A B C D E F G H I J K L M N O P Q R)
        (bvsle #x00000001 N)
      )
      (h6 A B C D E F G H I J K L M N O P Q R)
    )
  )
)
(assert
  (forall ( (A (_ BitVec 32)) (B (_ BitVec 32)) (C (_ BitVec 32)) (D (_ BitVec 32)) (E (_ BitVec 32)) (F (_ BitVec 32)) (G (_ BitVec 32)) (H (_ BitVec 32)) (I (_ BitVec 32)) (J (_ BitVec 32)) (K (_ BitVec 32)) (L (_ BitVec 32)) (M (_ BitVec 32)) (N (_ BitVec 32)) (O (_ BitVec 32)) (P (_ BitVec 32)) (Q (_ BitVec 32)) (R (_ BitVec 32)) ) 
    (=>
      (and
        (h6 A B C D E F G H I J K L M N O P Q R)
        true
      )
      (h7 A B C D E F G H I J K L M N O P Q R)
    )
  )
)
(assert
  (forall ( (A (_ BitVec 32)) (B (_ BitVec 32)) (C (_ BitVec 32)) (D (_ BitVec 32)) (E (_ BitVec 32)) (F (_ BitVec 32)) (G (_ BitVec 32)) (H (_ BitVec 32)) (I (_ BitVec 32)) (J (_ BitVec 32)) (K (_ BitVec 32)) (L (_ BitVec 32)) (M (_ BitVec 32)) (N (_ BitVec 32)) (O (_ BitVec 32)) (P (_ BitVec 32)) (Q (_ BitVec 32)) (R (_ BitVec 32)) ) 
    (=>
      (and
        (h7 A B C D E F G H I J K L M N O P Q R)
        (bvsle N #x00000009)
      )
      (h8 A B C D E F G H I J K L M N O P Q R)
    )
  )
)
(assert
  (forall ( (A (_ BitVec 32)) (B (_ BitVec 32)) (C (_ BitVec 32)) (D (_ BitVec 32)) (E (_ BitVec 32)) (F (_ BitVec 32)) (G (_ BitVec 32)) (H (_ BitVec 32)) (I (_ BitVec 32)) (J (_ BitVec 32)) (K (_ BitVec 32)) (L (_ BitVec 32)) (M (_ BitVec 32)) (N (_ BitVec 32)) (O (_ BitVec 32)) (P (_ BitVec 32)) (Q (_ BitVec 32)) (R (_ BitVec 32)) (S (_ BitVec 32)) (T (_ BitVec 32)) ) 
    (=>
      (and
        (h8 A B C D E F G H I J K L M N O S T R)
        (and (= P #x00000000) (= Q #x00000000))
      )
      (h9 A B C D E F G H I J K L M N O P Q R)
    )
  )
)
(assert
  (forall ( (A (_ BitVec 32)) (B (_ BitVec 32)) (C (_ BitVec 32)) (D (_ BitVec 32)) (E (_ BitVec 32)) (F (_ BitVec 32)) (G (_ BitVec 32)) (H (_ BitVec 32)) (I (_ BitVec 32)) (J (_ BitVec 32)) (K (_ BitVec 32)) (L (_ BitVec 32)) (M (_ BitVec 32)) (N (_ BitVec 32)) (O (_ BitVec 32)) (P (_ BitVec 32)) (Q (_ BitVec 32)) (R (_ BitVec 32)) ) 
    (=>
      (and
        (h9 A B C D E F G H I J K L M N O P Q R)
        true
      )
      (h10 A B C D E F G H I J K L M N O P Q R)
    )
  )
)
(assert
  (forall ( (A (_ BitVec 32)) (B (_ BitVec 32)) (C (_ BitVec 32)) (D (_ BitVec 32)) (E (_ BitVec 32)) (F (_ BitVec 32)) (G (_ BitVec 32)) (H (_ BitVec 32)) (I (_ BitVec 32)) (J (_ BitVec 32)) (K (_ BitVec 32)) (L (_ BitVec 32)) (M (_ BitVec 32)) (N (_ BitVec 32)) (O (_ BitVec 32)) (P (_ BitVec 32)) (Q (_ BitVec 32)) (R (_ BitVec 32)) ) 
    (=>
      (and
        (h10 A B C D E F G H I J K L M N O P Q R)
        true
      )
      (h11 A B C D E F G H I J K L M N O P Q R)
    )
  )
)
(assert
  (forall ( (A (_ BitVec 32)) (B (_ BitVec 32)) (C (_ BitVec 32)) (D (_ BitVec 32)) (E (_ BitVec 32)) (F (_ BitVec 32)) (G (_ BitVec 32)) (H (_ BitVec 32)) (I (_ BitVec 32)) (J (_ BitVec 32)) (K (_ BitVec 32)) (L (_ BitVec 32)) (M (_ BitVec 32)) (N (_ BitVec 32)) (O (_ BitVec 32)) (P (_ BitVec 32)) (Q (_ BitVec 32)) (R (_ BitVec 32)) ) 
    (=>
      (and
        (h11 A B C D E F G H I J K L M N O P Q R)
        true
      )
      (h12 A B C D E F G H I J K L M N O P Q R)
    )
  )
)
(assert
  (forall ( (A (_ BitVec 32)) (B (_ BitVec 32)) (C (_ BitVec 32)) (D (_ BitVec 32)) (E (_ BitVec 32)) (F (_ BitVec 32)) (G (_ BitVec 32)) (H (_ BitVec 32)) (I (_ BitVec 32)) (J (_ BitVec 32)) (K (_ BitVec 32)) (L (_ BitVec 32)) (M (_ BitVec 32)) (N (_ BitVec 32)) (O (_ BitVec 32)) (P (_ BitVec 32)) (Q (_ BitVec 32)) (R (_ BitVec 32)) ) 
    (=>
      (and
        (h27 A B C D E F G H I J K L M N O P Q R)
        true
      )
      (h12 A B C D E F G H I J K L M N O P Q R)
    )
  )
)
(assert
  (forall ( (A (_ BitVec 32)) (B (_ BitVec 32)) (C (_ BitVec 32)) (D (_ BitVec 32)) (E (_ BitVec 32)) (F (_ BitVec 32)) (G (_ BitVec 32)) (H (_ BitVec 32)) (I (_ BitVec 32)) (J (_ BitVec 32)) (K (_ BitVec 32)) (L (_ BitVec 32)) (M (_ BitVec 32)) (N (_ BitVec 32)) (O (_ BitVec 32)) (P (_ BitVec 32)) (Q (_ BitVec 32)) (R (_ BitVec 32)) ) 
    (=>
      (and
        (h29 A B C D E F G H I J K L M N O P Q R)
        true
      )
      (h12 A B C D E F G H I J K L M N O P Q R)
    )
  )
)
(assert
  (forall ( (A (_ BitVec 32)) (B (_ BitVec 32)) (C (_ BitVec 32)) (D (_ BitVec 32)) (E (_ BitVec 32)) (F (_ BitVec 32)) (G (_ BitVec 32)) (H (_ BitVec 32)) (I (_ BitVec 32)) (J (_ BitVec 32)) (K (_ BitVec 32)) (L (_ BitVec 32)) (M (_ BitVec 32)) (N (_ BitVec 32)) (O (_ BitVec 32)) (P (_ BitVec 32)) (Q (_ BitVec 32)) (R (_ BitVec 32)) ) 
    (=>
      (and
        (h12 A B C D E F G H I J K L M N O P Q R)
        true
      )
      (h13 A B C D E F G H I J K L M N O P Q R)
    )
  )
)
(assert
  (forall ( (A (_ BitVec 32)) (B (_ BitVec 32)) (C (_ BitVec 32)) (D (_ BitVec 32)) (E (_ BitVec 32)) (F (_ BitVec 32)) (G (_ BitVec 32)) (H (_ BitVec 32)) (I (_ BitVec 32)) (J (_ BitVec 32)) (K (_ BitVec 32)) (L (_ BitVec 32)) (M (_ BitVec 32)) (N (_ BitVec 32)) (O (_ BitVec 32)) (P (_ BitVec 32)) (Q (_ BitVec 32)) (R (_ BitVec 32)) ) 
    (=>
      (and
        (h13 A B C D E F G H I J K L M N O P Q R)
        (bvsle #x00000001 (bvadd N (bvmul #xffffffff P)))
      )
      (h14 A B C D E F G H I J K L M N O P Q R)
    )
  )
)
(assert
  (forall ( (A (_ BitVec 32)) (B (_ BitVec 32)) (C (_ BitVec 32)) (D (_ BitVec 32)) (E (_ BitVec 32)) (F (_ BitVec 32)) (G (_ BitVec 32)) (H (_ BitVec 32)) (I (_ BitVec 32)) (J (_ BitVec 32)) (K (_ BitVec 32)) (L (_ BitVec 32)) (M (_ BitVec 32)) (N (_ BitVec 32)) (O (_ BitVec 32)) (P (_ BitVec 32)) (Q (_ BitVec 32)) (R (_ BitVec 32)) (S (_ BitVec 32)) ) 
    (=>
      (and
        (h14 A B C D E F G H I J K L M N O S Q R)
        (= S (bvadd #xffffffff P))
      )
      (h15 A B C D E F G H I J K L M N O P Q R)
    )
  )
)
(assert
  (forall ( (A (_ BitVec 32)) (B (_ BitVec 32)) (C (_ BitVec 32)) (D (_ BitVec 32)) (E (_ BitVec 32)) (F (_ BitVec 32)) (G (_ BitVec 32)) (H (_ BitVec 32)) (I (_ BitVec 32)) (J (_ BitVec 32)) (K (_ BitVec 32)) (L (_ BitVec 32)) (M (_ BitVec 32)) (N (_ BitVec 32)) (O (_ BitVec 32)) (P (_ BitVec 32)) (Q (_ BitVec 32)) (R (_ BitVec 32)) ) 
    (=>
      (and
        (h13 A B C D E F G H I J K L M N O P Q R)
        (bvsle (bvadd N (bvmul #xffffffff P)) #x00000000)
      )
      (h16 A B C D E F G H I J K L M N O P Q R)
    )
  )
)
(assert
  (forall ( (A (_ BitVec 32)) (B (_ BitVec 32)) (C (_ BitVec 32)) (D (_ BitVec 32)) (E (_ BitVec 32)) (F (_ BitVec 32)) (G (_ BitVec 32)) (H (_ BitVec 32)) (I (_ BitVec 32)) (J (_ BitVec 32)) (K (_ BitVec 32)) (L (_ BitVec 32)) (M (_ BitVec 32)) (N (_ BitVec 32)) (O (_ BitVec 32)) (P (_ BitVec 32)) (Q (_ BitVec 32)) (R (_ BitVec 32)) ) 
    (=>
      (and
        (h16 A B C D E F G H I J K L M N O P Q R)
        true
      )
      (h17 A B C D E F G H I J K L M N O P Q R)
    )
  )
)
(assert
  (forall ( (A (_ BitVec 32)) (B (_ BitVec 32)) (C (_ BitVec 32)) (D (_ BitVec 32)) (E (_ BitVec 32)) (F (_ BitVec 32)) (G (_ BitVec 32)) (H (_ BitVec 32)) (I (_ BitVec 32)) (J (_ BitVec 32)) (K (_ BitVec 32)) (L (_ BitVec 32)) (M (_ BitVec 32)) (N (_ BitVec 32)) (O (_ BitVec 32)) (P (_ BitVec 32)) (Q (_ BitVec 32)) (R (_ BitVec 32)) ) 
    (=>
      (and
        (h17 A B C D E F G H I J K L M N O P Q R)
        true
      )
      (h18 A B C D E F G H I J K L M N O P Q R)
    )
  )
)
(assert
  (forall ( (A (_ BitVec 32)) (B (_ BitVec 32)) (C (_ BitVec 32)) (D (_ BitVec 32)) (E (_ BitVec 32)) (F (_ BitVec 32)) (G (_ BitVec 32)) (H (_ BitVec 32)) (I (_ BitVec 32)) (J (_ BitVec 32)) (K (_ BitVec 32)) (L (_ BitVec 32)) (M (_ BitVec 32)) (N (_ BitVec 32)) (O (_ BitVec 32)) (P (_ BitVec 32)) (Q (_ BitVec 32)) (R (_ BitVec 32)) ) 
    (=>
      (and
        (h15 A B C D E F G H I J K L M N O P Q R)
        true
      )
      (h19 A B C D E F G H I J K L M N O P Q R)
    )
  )
)
(assert
  (forall ( (A (_ BitVec 32)) (B (_ BitVec 32)) (C (_ BitVec 32)) (D (_ BitVec 32)) (E (_ BitVec 32)) (F (_ BitVec 32)) (G (_ BitVec 32)) (H (_ BitVec 32)) (I (_ BitVec 32)) (J (_ BitVec 32)) (K (_ BitVec 32)) (L (_ BitVec 32)) (M (_ BitVec 32)) (N (_ BitVec 32)) (O (_ BitVec 32)) (P (_ BitVec 32)) (Q (_ BitVec 32)) (R (_ BitVec 32)) ) 
    (=>
      (and
        (h19 A B C D E F G H I J K L M N O P Q R)
        (= J #x00000000)
      )
      (h20 A B C D E F G H I J K L M N O P Q R)
    )
  )
)
(assert
  (forall ( (A (_ BitVec 32)) (B (_ BitVec 32)) (C (_ BitVec 32)) (D (_ BitVec 32)) (E (_ BitVec 32)) (F (_ BitVec 32)) (G (_ BitVec 32)) (H (_ BitVec 32)) (I (_ BitVec 32)) (J (_ BitVec 32)) (K (_ BitVec 32)) (L (_ BitVec 32)) (M (_ BitVec 32)) (N (_ BitVec 32)) (O (_ BitVec 32)) (P (_ BitVec 32)) (Q (_ BitVec 32)) (R (_ BitVec 32)) (S (_ BitVec 32)) ) 
    (=>
      (and
        (h20 A B C D E F G H I J K L M N S P Q R)
        (= O #x00000000)
      )
      (h21 A B C D E F G H I J K L M N O P Q R)
    )
  )
)
(assert
  (forall ( (A (_ BitVec 32)) (B (_ BitVec 32)) (C (_ BitVec 32)) (D (_ BitVec 32)) (E (_ BitVec 32)) (F (_ BitVec 32)) (G (_ BitVec 32)) (H (_ BitVec 32)) (I (_ BitVec 32)) (J (_ BitVec 32)) (K (_ BitVec 32)) (L (_ BitVec 32)) (M (_ BitVec 32)) (N (_ BitVec 32)) (O (_ BitVec 32)) (P (_ BitVec 32)) (Q (_ BitVec 32)) (R (_ BitVec 32)) ) 
    (=>
      (and
        (h19 A B C D E F G H I J K L M N O P Q R)
        (bvsle J #xffffffff)
      )
      (h22 A B C D E F G H I J K L M N O P Q R)
    )
  )
)
(assert
  (forall ( (A (_ BitVec 32)) (B (_ BitVec 32)) (C (_ BitVec 32)) (D (_ BitVec 32)) (E (_ BitVec 32)) (F (_ BitVec 32)) (G (_ BitVec 32)) (H (_ BitVec 32)) (I (_ BitVec 32)) (J (_ BitVec 32)) (K (_ BitVec 32)) (L (_ BitVec 32)) (M (_ BitVec 32)) (N (_ BitVec 32)) (O (_ BitVec 32)) (P (_ BitVec 32)) (Q (_ BitVec 32)) (R (_ BitVec 32)) (S (_ BitVec 32)) ) 
    (=>
      (and
        (h22 A B C D E F G H I J K L M N S P Q R)
        (= O #x00000001)
      )
      (h23 A B C D E F G H I J K L M N O P Q R)
    )
  )
)
(assert
  (forall ( (A (_ BitVec 32)) (B (_ BitVec 32)) (C (_ BitVec 32)) (D (_ BitVec 32)) (E (_ BitVec 32)) (F (_ BitVec 32)) (G (_ BitVec 32)) (H (_ BitVec 32)) (I (_ BitVec 32)) (J (_ BitVec 32)) (K (_ BitVec 32)) (L (_ BitVec 32)) (M (_ BitVec 32)) (N (_ BitVec 32)) (O (_ BitVec 32)) (P (_ BitVec 32)) (Q (_ BitVec 32)) (R (_ BitVec 32)) (S (_ BitVec 32)) ) 
    (=>
      (and
        (h24 A B C D E F G H I J K L M N S P Q R)
        (= O #x00000001)
      )
      (h23 A B C D E F G H I J K L M N O P Q R)
    )
  )
)
(assert
  (forall ( (A (_ BitVec 32)) (B (_ BitVec 32)) (C (_ BitVec 32)) (D (_ BitVec 32)) (E (_ BitVec 32)) (F (_ BitVec 32)) (G (_ BitVec 32)) (H (_ BitVec 32)) (I (_ BitVec 32)) (J (_ BitVec 32)) (K (_ BitVec 32)) (L (_ BitVec 32)) (M (_ BitVec 32)) (N (_ BitVec 32)) (O (_ BitVec 32)) (P (_ BitVec 32)) (Q (_ BitVec 32)) (R (_ BitVec 32)) ) 
    (=>
      (and
        (h19 A B C D E F G H I J K L M N O P Q R)
        (bvsle #x00000001 J)
      )
      (h24 A B C D E F G H I J K L M N O P Q R)
    )
  )
)
(assert
  (forall ( (A (_ BitVec 32)) (B (_ BitVec 32)) (C (_ BitVec 32)) (D (_ BitVec 32)) (E (_ BitVec 32)) (F (_ BitVec 32)) (G (_ BitVec 32)) (H (_ BitVec 32)) (I (_ BitVec 32)) (J (_ BitVec 32)) (K (_ BitVec 32)) (L (_ BitVec 32)) (M (_ BitVec 32)) (N (_ BitVec 32)) (O (_ BitVec 32)) (P (_ BitVec 32)) (Q (_ BitVec 32)) (R (_ BitVec 32)) ) 
    (=>
      (and
        (h21 A B C D E F G H I J K L M N O P Q R)
        true
      )
      (h25 A B C D E F G H I J K L M N O P Q R)
    )
  )
)
(assert
  (forall ( (A (_ BitVec 32)) (B (_ BitVec 32)) (C (_ BitVec 32)) (D (_ BitVec 32)) (E (_ BitVec 32)) (F (_ BitVec 32)) (G (_ BitVec 32)) (H (_ BitVec 32)) (I (_ BitVec 32)) (J (_ BitVec 32)) (K (_ BitVec 32)) (L (_ BitVec 32)) (M (_ BitVec 32)) (N (_ BitVec 32)) (O (_ BitVec 32)) (P (_ BitVec 32)) (Q (_ BitVec 32)) (R (_ BitVec 32)) ) 
    (=>
      (and
        (h23 A B C D E F G H I J K L M N O P Q R)
        true
      )
      (h25 A B C D E F G H I J K L M N O P Q R)
    )
  )
)
(assert
  (forall ( (A (_ BitVec 32)) (B (_ BitVec 32)) (C (_ BitVec 32)) (D (_ BitVec 32)) (E (_ BitVec 32)) (F (_ BitVec 32)) (G (_ BitVec 32)) (H (_ BitVec 32)) (I (_ BitVec 32)) (J (_ BitVec 32)) (K (_ BitVec 32)) (L (_ BitVec 32)) (M (_ BitVec 32)) (N (_ BitVec 32)) (O (_ BitVec 32)) (P (_ BitVec 32)) (Q (_ BitVec 32)) (R (_ BitVec 32)) ) 
    (=>
      (and
        (h25 A B C D E F G H I J K L M N O P Q R)
        (= O #x00000000)
      )
      (h26 A B C D E F G H I J K L M N O P Q R)
    )
  )
)
(assert
  (forall ( (A (_ BitVec 32)) (B (_ BitVec 32)) (C (_ BitVec 32)) (D (_ BitVec 32)) (E (_ BitVec 32)) (F (_ BitVec 32)) (G (_ BitVec 32)) (H (_ BitVec 32)) (I (_ BitVec 32)) (J (_ BitVec 32)) (K (_ BitVec 32)) (L (_ BitVec 32)) (M (_ BitVec 32)) (N (_ BitVec 32)) (O (_ BitVec 32)) (P (_ BitVec 32)) (Q (_ BitVec 32)) (R (_ BitVec 32)) (S (_ BitVec 32)) ) 
    (=>
      (and
        (h26 A B C D E F G H I J K L M N O P S R)
        (= L (bvadd (bvmul #xffffffff S) Q))
      )
      (h27 A B C D E F G H I J K L M N O P Q R)
    )
  )
)
(assert
  (forall ( (A (_ BitVec 32)) (B (_ BitVec 32)) (C (_ BitVec 32)) (D (_ BitVec 32)) (E (_ BitVec 32)) (F (_ BitVec 32)) (G (_ BitVec 32)) (H (_ BitVec 32)) (I (_ BitVec 32)) (J (_ BitVec 32)) (K (_ BitVec 32)) (L (_ BitVec 32)) (M (_ BitVec 32)) (N (_ BitVec 32)) (O (_ BitVec 32)) (P (_ BitVec 32)) (Q (_ BitVec 32)) (R (_ BitVec 32)) ) 
    (=>
      (and
        (h25 A B C D E F G H I J K L M N O P Q R)
        (bvsle O #xffffffff)
      )
      (h28 A B C D E F G H I J K L M N O P Q R)
    )
  )
)
(assert
  (forall ( (A (_ BitVec 32)) (B (_ BitVec 32)) (C (_ BitVec 32)) (D (_ BitVec 32)) (E (_ BitVec 32)) (F (_ BitVec 32)) (G (_ BitVec 32)) (H (_ BitVec 32)) (I (_ BitVec 32)) (J (_ BitVec 32)) (K (_ BitVec 32)) (L (_ BitVec 32)) (M (_ BitVec 32)) (N (_ BitVec 32)) (O (_ BitVec 32)) (P (_ BitVec 32)) (Q (_ BitVec 32)) (R (_ BitVec 32)) (S (_ BitVec 32)) ) 
    (=>
      (and
        (h28 A B C D E F G H I J K L M N O P S R)
        (= M (bvadd (bvmul #xffffffff S) Q))
      )
      (h29 A B C D E F G H I J K L M N O P Q R)
    )
  )
)
(assert
  (forall ( (A (_ BitVec 32)) (B (_ BitVec 32)) (C (_ BitVec 32)) (D (_ BitVec 32)) (E (_ BitVec 32)) (F (_ BitVec 32)) (G (_ BitVec 32)) (H (_ BitVec 32)) (I (_ BitVec 32)) (J (_ BitVec 32)) (K (_ BitVec 32)) (L (_ BitVec 32)) (M (_ BitVec 32)) (N (_ BitVec 32)) (O (_ BitVec 32)) (P (_ BitVec 32)) (Q (_ BitVec 32)) (R (_ BitVec 32)) (S (_ BitVec 32)) ) 
    (=>
      (and
        (h30 A B C D E F G H I J K L M N O P S R)
        (= M (bvadd (bvmul #xffffffff S) Q))
      )
      (h29 A B C D E F G H I J K L M N O P Q R)
    )
  )
)
(assert
  (forall ( (A (_ BitVec 32)) (B (_ BitVec 32)) (C (_ BitVec 32)) (D (_ BitVec 32)) (E (_ BitVec 32)) (F (_ BitVec 32)) (G (_ BitVec 32)) (H (_ BitVec 32)) (I (_ BitVec 32)) (J (_ BitVec 32)) (K (_ BitVec 32)) (L (_ BitVec 32)) (M (_ BitVec 32)) (N (_ BitVec 32)) (O (_ BitVec 32)) (P (_ BitVec 32)) (Q (_ BitVec 32)) (R (_ BitVec 32)) ) 
    (=>
      (and
        (h25 A B C D E F G H I J K L M N O P Q R)
        (bvsle #x00000001 O)
      )
      (h30 A B C D E F G H I J K L M N O P Q R)
    )
  )
)
(assert
  (forall ( (A (_ BitVec 32)) (B (_ BitVec 32)) (C (_ BitVec 32)) (D (_ BitVec 32)) (E (_ BitVec 32)) (F (_ BitVec 32)) (G (_ BitVec 32)) (H (_ BitVec 32)) (I (_ BitVec 32)) (J (_ BitVec 32)) (K (_ BitVec 32)) (L (_ BitVec 32)) (M (_ BitVec 32)) (N (_ BitVec 32)) (O (_ BitVec 32)) (P (_ BitVec 32)) (Q (_ BitVec 32)) (R (_ BitVec 32)) ) 
    (=>
      (and
        (h18 A B C D E F G H I J K L M N O P Q R)
        true
      )
      (h31 A B C D E F G H I J K L M N O P Q R)
    )
  )
)
(assert
  (forall ( (A (_ BitVec 32)) (B (_ BitVec 32)) (C (_ BitVec 32)) (D (_ BitVec 32)) (E (_ BitVec 32)) (F (_ BitVec 32)) (G (_ BitVec 32)) (H (_ BitVec 32)) (I (_ BitVec 32)) (J (_ BitVec 32)) (K (_ BitVec 32)) (L (_ BitVec 32)) (M (_ BitVec 32)) (N (_ BitVec 32)) (O (_ BitVec 32)) (P (_ BitVec 32)) (Q (_ BitVec 32)) (R (_ BitVec 32)) ) 
    (=>
      (and
        (h31 A B C D E F G H I J K L M N O P Q R)
        (bvsle #x00000000 (bvadd N (bvmul #xffffffff Q)))
      )
      (h32 A B C D E F G H I J K L M N O P Q R)
    )
  )
)
(assert
  (forall ( (A (_ BitVec 32)) (B (_ BitVec 32)) (C (_ BitVec 32)) (D (_ BitVec 32)) (E (_ BitVec 32)) (F (_ BitVec 32)) (G (_ BitVec 32)) (H (_ BitVec 32)) (I (_ BitVec 32)) (J (_ BitVec 32)) (K (_ BitVec 32)) (L (_ BitVec 32)) (M (_ BitVec 32)) (N (_ BitVec 32)) (O (_ BitVec 32)) (P (_ BitVec 32)) (Q (_ BitVec 32)) (R (_ BitVec 32)) ) 
    (=>
      (and
        (h32 A B C D E F G H I J K L M N O P Q R)
        true
      )
      false
    )
  )
)

(check-sat)
(exit)
